Route 1: 0 32 23 73 59 40 99 36 75 42 0
Route 2: 0 80 57 50 19 71 81 17 70 95 0
Route 3: 0 56 55 38 37 8 63 3 4 89 64 0
Route 4: 0 30 21 96 41 20 9 0
Route 5: 0 61 52 72 85 49 76 54 0
Route 6: 0 100 82 11 60 35 79 0
Route 7: 0 7 27 94 2 16 53 86 25 0
Route 8: 0 24 87 18 67 78 98 43 66 34 48 12 0
Route 9: 0 22 83 77 14 15 33 84 0
Route 10: 0 45 91 31 26 74 62 47 51 68 13 0
Route 11: 0 88 93 44 5 90 46 39 97 58 69 0
Route 12: 0 92 6 28 65 29 10 1 0
